NAME : tsp_173_sol.txt
COMMENT : OR-Tools Guided Local Search
TYPE : TOUR
DIMENSION : 50
COST : 5553
STATUS : ROUTING_SUCCESS
GAP : 0.00% (Reference Solution)
TOUR_SECTION
1
40
17
5
18
29
38
10
34
33
22
19
9
48
35
14
7
28
2
44
27
23
37
49
8
6
50
3
24
32
26
20
21
43
30
47
15
39
4
12
25
36
45
16
13
42
46
11
31
41
-1
